33D32945 STP File, STP Format Version 1.0

SECTION Comment
Name "i640-333-PCST"
Creator "Indaco Biazzo" 
Remark "derived from Incidence graph by Cees Duin"
END

SECTION Graph
Nodes 640
Edges 1280
E 1 15 297.000000
E 1 66 300.000000
E 1 122 291.000000
E 1 162 193.000000
E 1 164 191.000000
E 1 453 201.000000
E 1 508 200.000000
E 2 31 303.000000
E 2 58 302.000000
E 2 634 196.000000
E 3 85 301.000000
E 3 212 200.000000
E 3 400 199.000000
E 4 310 196.000000
E 5 54 296.000000
E 5 146 301.000000
E 5 317 197.000000
E 5 363 199.000000
E 5 456 198.000000
E 6 202 203.000000
E 6 558 198.000000
E 7 520 201.000000
E 7 621 201.000000
E 8 39 297.000000
E 8 110 305.000000
E 8 205 205.000000
E 8 520 205.000000
E 9 360 191.000000
E 9 478 207.000000
E 9 570 196.000000
E 9 598 197.000000
E 10 22 303.000000
E 10 57 309.000000
E 10 256 199.000000
E 10 268 197.000000
E 10 305 201.000000
E 11 292 204.000000
E 11 310 195.000000
E 11 636 197.000000
E 12 356 200.000000
E 12 368 207.000000
E 12 438 206.000000
E 12 453 201.000000
E 12 523 197.000000
E 12 610 200.000000
E 13 64 298.000000
E 13 479 210.000000
E 13 580 197.000000
E 14 107 293.000000
E 14 144 296.000000
E 14 197 198.000000
E 14 267 193.000000
E 14 416 205.000000
E 14 428 205.000000
E 14 432 199.000000
E 15 511 199.000000
E 15 620 198.000000
E 16 17 306.000000
E 16 65 289.000000
E 16 237 204.000000
E 17 129 300.000000
E 17 261 195.000000
E 17 356 196.000000
E 17 451 205.000000
E 17 504 196.000000
E 17 542 191.000000
E 18 70 304.000000
E 18 142 298.000000
E 18 189 203.000000
E 18 534 200.000000
E 19 123 293.000000
E 19 233 198.000000
E 19 251 201.000000
E 19 272 204.000000
E 19 367 186.000000
E 19 492 198.000000
E 20 89 301.000000
E 20 124 298.000000
E 20 141 297.000000
E 20 204 200.000000
E 20 242 195.000000
E 20 319 200.000000
E 20 574 196.000000
E 21 92 293.000000
E 21 410 195.000000
E 21 638 196.000000
E 22 47 303.000000
E 22 305 197.000000
E 23 62 308.000000
E 23 69 297.000000
E 23 162 200.000000
E 23 354 207.000000
E 23 402 208.000000
E 23 469 204.000000
E 23 520 200.000000
E 23 564 206.000000
E 23 600 199.000000
E 23 632 201.000000
E 24 211 192.000000
E 24 242 203.000000
E 24 628 195.000000
E 25 131 289.000000
E 25 492 194.000000
E 25 527 201.000000
E 26 225 200.000000
E 26 374 195.000000
E 26 589 198.000000
E 26 602 194.000000
E 27 131 308.000000
E 27 195 199.000000
E 27 545 201.000000
E 27 577 199.000000
E 27 622 198.000000
E 28 135 300.000000
E 28 160 311.000000
E 28 196 196.000000
E 28 300 194.000000
E 29 54 299.000000
E 29 125 294.000000
E 29 240 197.000000
E 29 373 189.000000
E 29 401 195.000000
E 30 229 205.000000
E 30 283 196.000000
E 30 287 201.000000
E 31 36 304.000000
E 31 133 295.000000
E 31 589 194.000000
E 32 390 197.000000
E 32 470 203.000000
E 33 443 210.000000
E 33 607 193.000000
E 34 112 299.000000
E 34 392 197.000000
E 34 430 201.000000
E 34 521 195.000000
E 35 54 290.000000
E 35 62 301.000000
E 35 203 192.000000
E 35 210 196.000000
E 35 346 197.000000
E 35 359 201.000000
E 35 605 201.000000
E 35 620 196.000000
E 36 47 311.000000
E 36 324 201.000000
E 36 480 197.000000
E 36 534 209.000000
E 36 622 198.000000
E 37 222 197.000000
E 37 285 194.000000
E 37 479 194.000000
E 38 315 202.000000
E 38 563 203.000000
E 38 601 197.000000
E 39 55 296.000000
E 39 102 303.000000
E 39 192 202.000000
E 39 319 209.000000
E 39 337 209.000000
E 39 481 201.000000
E 39 540 201.000000
E 39 587 203.000000
E 39 606 202.000000
E 40 371 203.000000
E 40 450 197.000000
E 40 453 200.000000
E 41 88 297.000000
E 41 113 301.000000
E 41 279 213.000000
E 41 343 198.000000
E 42 82 300.000000
E 42 130 296.000000
E 42 138 297.000000
E 42 240 199.000000
E 42 241 200.000000
E 42 251 197.000000
E 42 267 208.000000
E 42 419 202.000000
E 42 420 198.000000
E 42 424 202.000000
E 42 463 205.000000
E 42 468 194.000000
E 42 478 201.000000
E 42 496 202.000000
E 43 269 193.000000
E 43 321 204.000000
E 44 166 202.000000
E 44 231 196.000000
E 44 305 198.000000
E 44 387 194.000000
E 45 148 300.000000
E 45 400 192.000000
E 45 412 201.000000
E 45 631 191.000000
E 46 178 204.000000
E 46 613 205.000000
E 47 240 212.000000
E 47 481 198.000000
E 48 481 203.000000
E 49 157 303.000000
E 49 244 204.000000
E 49 369 203.000000
E 49 401 194.000000
E 50 59 305.000000
E 50 164 196.000000
E 50 317 191.000000
E 50 381 200.000000
E 50 430 196.000000
E 51 419 204.000000
E 51 602 195.000000
E 51 638 202.000000
E 52 78 302.000000
E 52 154 293.000000
E 52 458 202.000000
E 52 495 201.000000
E 52 552 200.000000
E 53 84 295.000000
E 53 289 187.000000
E 53 575 198.000000
E 54 264 200.000000
E 55 166 198.000000
E 56 462 205.000000
E 57 218 200.000000
E 57 247 199.000000
E 57 264 206.000000
E 57 395 201.000000
E 57 410 204.000000
E 57 476 205.000000
E 57 560 204.000000
E 57 585 194.000000
E 58 148 307.000000
E 58 280 199.000000
E 58 282 198.000000
E 58 301 191.000000
E 58 318 195.000000
E 58 484 197.000000
E 58 520 196.000000
E 58 522 199.000000
E 58 638 199.000000
E 59 136 297.000000
E 59 174 193.000000
E 59 270 205.000000
E 59 338 189.000000
E 59 474 197.000000
E 60 362 196.000000
E 60 431 205.000000
E 60 439 200.000000
E 60 560 210.000000
E 61 218 196.000000
E 61 365 200.000000
E 61 518 201.000000
E 61 590 198.000000
E 62 97 303.000000
E 62 630 197.000000
E 63 250 202.000000
E 63 264 197.000000
E 64 237 197.000000
E 64 397 205.000000
E 65 282 197.000000
E 65 355 203.000000
E 65 401 190.000000
E 66 218 204.000000
E 66 549 192.000000
E 67 188 196.000000
E 67 536 195.000000
E 68 87 290.000000
E 68 204 198.000000
E 68 220 198.000000
E 68 346 203.000000
E 69 122 302.000000
E 69 558 193.000000
E 70 267 203.000000
E 70 636 201.000000
E 71 462 213.000000
E 71 486 198.000000
E 72 161 197.000000
E 72 209 196.000000
E 72 282 202.000000
E 72 298 192.000000
E 72 476 200.000000
E 73 120 299.000000
E 73 328 200.000000
E 73 386 194.000000
E 73 603 197.000000
E 74 238 192.000000
E 74 411 197.000000
E 74 635 194.000000
E 75 94 301.000000
E 75 115 295.000000
E 75 133 301.000000
E 75 168 210.000000
E 75 310 195.000000
E 75 416 216.000000
E 75 593 206.000000
E 76 220 196.000000
E 76 223 195.000000
E 76 614 201.000000
E 77 260 203.000000
E 77 329 206.000000
E 77 481 203.000000
E 78 223 194.000000
E 78 268 198.000000
E 79 511 205.000000
E 79 558 205.000000
E 80 188 210.000000
E 80 511 194.000000
E 81 201 200.000000
E 81 261 197.000000
E 81 272 196.000000
E 81 402 201.000000
E 81 447 198.000000
E 81 481 200.000000
E 83 299 198.000000
E 83 411 205.000000
E 83 432 193.000000
E 83 495 202.000000
E 83 533 204.000000
E 84 179 192.000000
E 84 218 191.000000
E 84 291 203.000000
E 84 455 188.000000
E 84 510 201.000000
E 85 582 203.000000
E 85 590 203.000000
E 86 200 193.000000
E 86 213 201.000000
E 86 388 195.000000
E 87 366 204.000000
E 87 461 195.000000
E 87 617 203.000000
E 88 115 291.000000
E 88 220 195.000000
E 88 248 206.000000
E 88 439 193.000000
E 89 194 203.000000
E 89 600 193.000000
E 90 311 196.000000
E 90 346 200.000000
E 91 271 198.000000
E 91 461 198.000000
E 91 546 191.000000
E 92 184 197.000000
E 92 194 199.000000
E 92 219 191.000000
E 92 253 200.000000
E 92 309 193.000000
E 92 361 196.000000
E 93 369 204.000000
E 93 416 202.000000
E 93 626 197.000000
E 94 184 186.000000
E 94 281 204.000000
E 94 481 190.000000
E 94 525 209.000000
E 95 100 303.000000
E 95 341 194.000000
E 96 206 186.000000
E 96 553 201.000000
E 97 308 197.000000
E 97 373 189.000000
E 98 138 299.000000
E 98 162 209.000000
E 98 262 198.000000
E 98 306 193.000000
E 98 417 195.000000
E 99 153 305.000000
E 99 309 194.000000
E 99 416 196.000000
E 99 566 203.000000
E 99 596 201.000000
E 100 220 197.000000
E 100 286 200.000000
E 100 298 195.000000
E 100 568 202.000000
E 101 114 297.000000
E 101 186 206.000000
E 101 240 210.000000
E 101 431 202.000000
E 101 442 190.000000
E 101 587 200.000000
E 102 125 304.000000
E 102 608 201.000000
E 102 628 204.000000
E 103 207 204.000000
E 103 374 200.000000
E 103 415 201.000000
E 104 464 202.000000
E 104 466 198.000000
E 104 594 200.000000
E 105 185 205.000000
E 106 177 196.000000
E 106 187 201.000000
E 106 353 205.000000
E 106 508 200.000000
E 108 407 201.000000
E 109 371 196.000000
E 109 583 208.000000
E 110 169 198.000000
E 111 364 191.000000
E 111 536 201.000000
E 111 564 195.000000
E 112 370 202.000000
E 112 585 198.000000
E 113 410 197.000000
E 114 129 302.000000
E 114 138 303.000000
E 114 162 193.000000
E 114 422 200.000000
E 114 461 198.000000
E 114 595 207.000000
E 114 627 199.000000
E 115 136 315.000000
E 115 137 302.000000
E 115 201 202.000000
E 115 235 201.000000
E 115 548 191.000000
E 116 186 198.000000
E 116 340 197.000000
E 116 395 193.000000
E 116 448 191.000000
E 116 461 200.000000
E 117 409 201.000000
E 118 194 194.000000
E 118 279 195.000000
E 118 322 205.000000
E 118 563 200.000000
E 119 327 191.000000
E 119 389 202.000000
E 119 441 201.000000
E 119 524 201.000000
E 120 372 202.000000
E 120 539 197.000000
E 120 574 189.000000
E 121 324 196.000000
E 121 342 189.000000
E 121 489 199.000000
E 121 615 201.000000
E 122 142 302.000000
E 122 144 295.000000
E 122 315 202.000000
E 122 338 206.000000
E 122 393 204.000000
E 122 398 199.000000
E 122 454 198.000000
E 122 511 198.000000
E 122 610 207.000000
E 122 640 201.000000
E 123 199 198.000000
E 123 213 199.000000
E 123 275 200.000000
E 123 420 199.000000
E 124 359 196.000000
E 124 383 201.000000
E 125 294 198.000000
E 125 319 207.000000
E 126 192 195.000000
E 126 207 194.000000
E 126 378 195.000000
E 126 453 191.000000
E 126 475 201.000000
E 127 137 296.000000
E 127 370 207.000000
E 127 497 202.000000
E 127 511 197.000000
E 128 313 196.000000
E 128 322 199.000000
E 128 333 196.000000
E 128 415 202.000000
E 128 436 196.000000
E 128 508 193.000000
E 129 261 201.000000
E 129 304 190.000000
E 129 408 197.000000
E 129 435 209.000000
E 130 147 301.000000
E 130 458 199.000000
E 130 562 199.000000
E 132 267 200.000000
E 133 563 207.000000
E 134 214 200.000000
E 134 358 200.000000
E 134 503 201.000000
E 134 608 195.000000
E 135 587 201.000000
E 136 581 198.000000
E 137 159 293.000000
E 137 370 201.000000
E 137 386 200.000000
E 137 391 191.000000
E 137 412 202.000000
E 137 449 207.000000
E 137 572 197.000000
E 138 278 199.000000
E 138 305 200.000000
E 138 375 200.000000
E 138 410 207.000000
E 138 498 206.000000
E 139 159 303.000000
E 139 405 198.000000
E 139 621 200.000000
E 140 163 204.000000
E 140 176 207.000000
E 140 211 206.000000
E 140 371 202.000000
E 140 542 198.000000
E 140 631 191.000000
E 141 147 296.000000
E 141 267 200.000000
E 141 464 204.000000
E 142 438 205.000000
E 143 430 201.000000
E 143 539 205.000000
E 143 569 195.000000
E 144 182 200.000000
E 144 193 199.000000
E 144 218 197.000000
E 144 477 202.000000
E 144 551 202.000000
E 145 193 201.000000
E 145 491 209.000000
E 146 200 195.000000
E 146 267 199.000000
E 146 583 200.000000
E 147 238 206.000000
E 147 240 200.000000
E 147 302 205.000000
E 147 357 198.000000
E 147 531 205.000000
E 147 547 206.000000
E 147 592 207.000000
E 147 634 197.000000
E 148 516 197.000000
E 149 198 197.000000
E 149 217 203.000000
E 149 483 197.000000
E 150 399 202.000000
E 150 453 200.000000
E 150 521 208.000000
E 150 562 194.000000
E 151 206 201.000000
E 151 271 195.000000
E 151 306 207.000000
E 151 321 195.000000
E 151 624 189.000000
E 152 294 197.000000
E 152 613 205.000000
E 153 340 203.000000
E 153 415 194.000000
E 154 181 194.000000
E 154 410 190.000000
E 154 434 201.000000
E 154 547 201.000000
E 154 579 195.000000
E 154 610 196.000000
E 155 355 199.000000
E 156 350 205.000000
E 156 410 195.000000
E 156 512 203.000000
E 157 311 200.000000
E 157 472 201.000000
E 158 187 198.000000
E 158 395 196.000000
E 158 467 204.000000
E 158 485 191.000000
E 159 444 204.000000
E 159 570 197.000000
E 160 263 193.000000
E 161 292 99.000000
E 161 636 93.000000
E 162 180 103.000000
E 162 425 102.000000
E 162 454 104.000000
E 164 282 104.000000
E 164 315 103.000000
E 164 489 101.000000
E 165 376 100.000000
E 165 477 101.000000
E 165 544 101.000000
E 165 570 104.000000
E 166 243 102.000000
E 166 281 99.000000
E 166 305 100.000000
E 167 250 102.000000
E 167 304 101.000000
E 167 443 91.000000
E 167 565 98.000000
E 167 600 99.000000
E 168 170 97.000000
E 168 202 96.000000
E 168 420 98.000000
E 169 478 95.000000
E 169 485 86.000000
E 169 598 107.000000
E 170 396 89.000000
E 170 596 101.000000
E 170 606 102.000000
E 170 616 107.000000
E 171 235 108.000000
E 171 574 100.000000
E 172 212 98.000000
E 172 370 96.000000
E 173 298 106.000000
E 173 399 89.000000
E 174 349 102.000000
E 174 386 95.000000
E 174 624 102.000000
E 175 321 100.000000
E 175 463 100.000000
E 175 539 103.000000
E 175 553 98.000000
E 176 208 95.000000
E 176 429 98.000000
E 176 438 102.000000
E 176 570 109.000000
E 176 630 102.000000
E 177 261 111.000000
E 177 511 100.000000
E 178 197 107.000000
E 178 230 104.000000
E 178 293 100.000000
E 178 465 100.000000
E 178 582 98.000000
E 179 273 103.000000
E 180 404 94.000000
E 180 554 105.000000
E 181 400 102.000000
E 181 449 96.000000
E 182 233 100.000000
E 182 237 91.000000
E 182 297 106.000000
E 183 498 105.000000
E 183 621 97.000000
E 184 210 105.000000
E 184 230 97.000000
E 184 355 104.000000
E 184 415 100.000000
E 185 358 95.000000
E 185 448 99.000000
E 185 463 99.000000
E 185 553 102.000000
E 186 629 104.000000
E 187 264 101.000000
E 187 278 104.000000
E 187 410 100.000000
E 187 480 99.000000
E 187 534 99.000000
E 188 194 99.000000
E 188 490 94.000000
E 188 591 102.000000
E 189 354 96.000000
E 190 383 96.000000
E 190 440 103.000000
E 191 571 103.000000
E 192 515 102.000000
E 192 609 96.000000
E 193 260 95.000000
E 193 261 93.000000
E 193 280 104.000000
E 193 525 100.000000
E 194 447 92.000000
E 194 563 99.000000
E 195 491 96.000000
E 196 361 93.000000
E 196 511 108.000000
E 196 637 99.000000
E 197 292 99.000000
E 197 306 107.000000
E 197 353 90.000000
E 197 416 103.000000
E 197 551 103.000000
E 197 557 93.000000
E 197 630 95.000000
E 198 446 99.000000
E 198 529 94.000000
E 198 633 100.000000
E 199 239 98.000000
E 199 320 94.000000
E 199 479 94.000000
E 199 530 96.000000
E 200 338 105.000000
E 200 380 100.000000
E 201 216 99.000000
E 201 343 96.000000
E 201 420 102.000000
E 201 625 100.000000
E 202 395 107.000000
E 202 510 99.000000
E 202 580 101.000000
E 202 611 91.000000
E 202 626 108.000000
E 203 242 96.000000
E 203 267 105.000000
E 203 393 100.000000
E 203 520 101.000000
E 203 551 103.000000
E 204 324 98.000000
E 204 335 102.000000
E 204 457 102.000000
E 204 504 97.000000
E 204 593 94.000000
E 205 208 98.000000
E 205 415 105.000000
E 205 419 97.000000
E 206 309 104.000000
E 206 353 103.000000
E 206 591 101.000000
E 206 612 92.000000
E 207 272 97.000000
E 208 404 102.000000
E 208 611 105.000000
E 209 251 108.000000
E 209 312 98.000000
E 209 410 105.000000
E 210 528 99.000000
E 211 356 98.000000
E 211 559 102.000000
E 212 216 98.000000
E 212 484 100.000000
E 212 531 100.000000
E 213 323 89.000000
E 214 268 105.000000
E 214 328 101.000000
E 214 395 92.000000
E 215 240 99.000000
E 215 396 101.000000
E 215 561 95.000000
E 217 240 101.000000
E 217 268 108.000000
E 217 308 94.000000
E 217 341 97.000000
E 217 385 99.000000
E 217 524 102.000000
E 217 549 109.000000
E 218 229 93.000000
E 218 232 108.000000
E 218 365 102.000000
E 219 258 96.000000
E 219 341 100.000000
E 219 529 100.000000
E 220 246 103.000000
E 220 596 96.000000
E 221 228 103.000000
E 221 512 106.000000
E 221 525 94.000000
E 222 258 96.000000
E 222 308 103.000000
E 222 318 100.000000
E 222 340 99.000000
E 222 476 96.000000
E 222 502 99.000000
E 222 613 94.000000
E 223 482 94.000000
E 224 242 103.000000
E 224 278 103.000000
E 224 299 100.000000
E 225 230 104.000000
E 225 604 99.000000
E 226 298 94.000000
E 226 345 99.000000
E 227 436 107.000000
E 227 487 109.000000
E 227 595 99.000000
E 227 603 98.000000
E 227 619 98.000000
E 228 331 98.000000
E 228 383 96.000000
E 228 573 105.000000
E 228 636 92.000000
E 229 368 99.000000
E 229 539 100.000000
E 229 582 101.000000
E 229 607 95.000000
E 230 273 97.000000
E 230 484 99.000000
E 231 244 96.000000
E 231 590 96.000000
E 232 291 103.000000
E 233 467 98.000000
E 234 301 99.000000
E 234 303 96.000000
E 234 457 96.000000
E 235 271 103.000000
E 236 381 106.000000
E 236 460 95.000000
E 236 530 102.000000
E 237 452 99.000000
E 237 478 99.000000
E 237 559 97.000000
E 237 587 92.000000
E 237 596 100.000000
E 237 601 104.000000
E 238 242 107.000000
E 238 336 105.000000
E 238 595 91.000000
E 239 309 101.000000
E 240 358 100.000000
E 240 479 98.000000
E 241 290 94.000000
E 241 497 97.000000
E 242 333 108.000000
E 242 472 99.000000
E 243 250 101.000000
E 243 399 99.000000
E 243 441 94.000000
E 243 589 88.000000
E 243 618 90.000000
E 244 461 103.000000
E 244 527 99.000000
E 245 264 94.000000
E 245 420 111.000000
E 245 570 99.000000
E 247 547 102.000000
E 249 252 88.000000
E 249 296 96.000000
E 249 317 100.000000
E 249 601 106.000000
E 250 298 105.000000
E 250 354 105.000000
E 250 548 94.000000
E 251 342 105.000000
E 251 382 97.000000
E 251 404 101.000000
E 251 423 106.000000
E 251 447 93.000000
E 252 280 105.000000
E 252 526 98.000000
E 253 255 97.000000
E 253 398 106.000000
E 254 480 99.000000
E 254 546 98.000000
E 255 288 114.000000
E 255 360 103.000000
E 255 502 98.000000
E 256 421 102.000000
E 256 480 97.000000
E 256 555 106.000000
E 257 310 101.000000
E 257 614 95.000000
E 258 621 97.000000
E 259 454 92.000000
E 259 507 104.000000
E 259 524 94.000000
E 262 446 100.000000
E 262 496 96.000000
E 263 285 109.000000
E 263 319 105.000000
E 263 595 96.000000
E 264 429 104.000000
E 264 434 104.000000
E 264 442 91.000000
E 264 629 103.000000
E 265 304 100.000000
E 265 331 90.000000
E 265 433 111.000000
E 266 490 100.000000
E 266 554 90.000000
E 266 629 100.000000
E 267 288 99.000000
E 267 297 92.000000
E 267 305 104.000000
E 268 454 110.000000
E 269 420 98.000000
E 269 533 88.000000
E 269 562 100.000000
E 270 289 96.000000
E 270 371 97.000000
E 270 408 106.000000
E 270 464 104.000000
E 271 439 98.000000
E 272 296 104.000000
E 272 630 100.000000
E 273 323 98.000000
E 273 625 102.000000
E 274 291 103.000000
E 274 325 105.000000
E 275 453 90.000000
E 275 482 104.000000
E 276 345 93.000000
E 276 380 110.000000
E 276 602 102.000000
E 276 625 98.000000
E 277 281 101.000000
E 277 343 98.000000
E 277 363 101.000000
E 278 372 104.000000
E 278 456 100.000000
E 278 524 106.000000
E 278 613 102.000000
E 279 296 101.000000
E 279 426 100.000000
E 279 453 97.000000
E 279 522 108.000000
E 279 565 103.000000
E 280 444 98.000000
E 281 593 105.000000
E 282 401 97.000000
E 282 499 91.000000
E 283 392 104.000000
E 283 499 102.000000
E 284 286 110.000000
E 284 331 103.000000
E 284 502 108.000000
E 285 471 101.000000
E 285 558 102.000000
E 285 597 99.000000
E 286 352 99.000000
E 286 572 101.000000
E 287 561 95.000000
E 287 612 103.000000
E 287 621 102.000000
E 288 466 94.000000
E 288 512 105.000000
E 289 301 98.000000
E 289 385 102.000000
E 289 415 111.000000
E 290 308 103.000000
E 290 469 105.000000
E 293 329 103.000000
E 293 560 95.000000
E 294 335 102.000000
E 294 343 105.000000
E 295 319 103.000000
E 295 363 98.000000
E 296 318 102.000000
E 297 487 106.000000
E 297 584 104.000000
E 298 382 101.000000
E 298 490 100.000000
E 298 631 92.000000
E 299 371 98.000000
E 302 469 94.000000
E 302 572 104.000000
E 303 305 90.000000
E 303 307 102.000000
E 303 557 90.000000
E 304 325 92.000000
E 305 311 105.000000
E 305 344 95.000000
E 305 568 95.000000
E 306 309 100.000000
E 306 314 97.000000
E 306 348 109.000000
E 306 554 101.000000
E 306 637 95.000000
E 307 471 101.000000
E 307 535 93.000000
E 308 318 100.000000
E 308 332 102.000000
E 308 462 93.000000
E 308 549 101.000000
E 308 620 96.000000
E 309 544 96.000000
E 311 600 105.000000
E 311 625 110.000000
E 312 473 97.000000
E 312 476 98.000000
E 312 519 96.000000
E 312 589 107.000000
E 313 342 95.000000
E 313 404 96.000000
E 314 320 97.000000
E 314 423 106.000000
E 315 522 101.000000
E 315 603 109.000000
E 316 431 102.000000
E 316 462 91.000000
E 316 495 112.000000
E 316 567 109.000000
E 316 619 93.000000
E 317 336 105.000000
E 317 458 98.000000
E 318 446 101.000000
E 318 585 102.000000
E 321 494 90.000000
E 321 538 98.000000
E 322 591 98.000000
E 324 500 95.000000
E 325 408 91.000000
E 325 509 91.000000
E 326 427 98.000000
E 328 422 94.000000
E 328 593 92.000000
E 330 333 106.000000
E 330 361 103.000000
E 331 543 101.000000
E 331 623 102.000000
E 332 579 96.000000
E 332 629 97.000000
E 333 392 99.000000
E 334 346 100.000000
E 334 485 99.000000
E 334 563 91.000000
E 334 639 106.000000
E 335 375 99.000000
E 336 437 95.000000
E 337 524 101.000000
E 338 393 102.000000
E 338 413 97.000000
E 338 505 98.000000
E 338 527 105.000000
E 339 569 95.000000
E 339 585 96.000000
E 340 529 105.000000
E 340 563 97.000000
E 341 359 91.000000
E 341 557 94.000000
E 342 565 91.000000
E 342 632 97.000000
E 343 371 91.000000
E 344 426 101.000000
E 344 564 110.000000
E 346 365 105.000000
E 346 536 98.000000
E 347 480 98.000000
E 347 543 105.000000
E 347 622 92.000000
E 348 403 106.000000
E 348 600 103.000000
E 349 465 102.000000
E 349 507 96.000000
E 349 598 91.000000
E 349 626 104.000000
E 350 616 96.000000
E 351 453 101.000000
E 351 567 103.000000
E 351 629 102.000000
E 351 633 89.000000
E 353 416 107.000000
E 354 407 105.000000
E 354 412 103.000000
E 354 560 97.000000
E 355 621 91.000000
E 356 513 102.000000
E 356 597 106.000000
E 357 371 91.000000
E 357 389 86.000000
E 357 587 102.000000
E 359 425 101.000000
E 360 482 110.000000
E 361 407 101.000000
E 362 420 103.000000
E 362 446 104.000000
E 363 497 97.000000
E 366 603 105.000000
E 366 626 102.000000
E 367 386 95.000000
E 367 505 102.000000
E 368 461 99.000000
E 369 525 94.000000
E 369 549 103.000000
E 370 371 102.000000
E 370 517 102.000000
E 370 528 105.000000
E 370 530 97.000000
E 370 599 97.000000
E 371 402 99.000000
E 371 471 96.000000
E 371 563 111.000000
E 372 448 95.000000
E 372 593 98.000000
E 373 390 90.000000
E 374 472 96.000000
E 374 533 98.000000
E 374 607 90.000000
E 375 379 99.000000
E 375 553 98.000000
E 376 565 95.000000
E 376 585 98.000000
E 376 599 111.000000
E 377 485 102.000000
E 377 577 103.000000
E 377 584 92.000000
E 378 559 97.000000
E 380 507 104.000000
E 380 623 98.000000
E 381 550 95.000000
E 381 639 106.000000
E 382 480 105.000000
E 383 393 104.000000
E 384 385 99.000000
E 386 520 102.000000
E 387 498 97.000000
E 388 411 94.000000
E 388 454 108.000000
E 391 460 96.000000
E 392 430 99.000000
E 392 515 100.000000
E 392 572 98.000000
E 392 595 106.000000
E 393 437 104.000000
E 393 483 104.000000
E 393 567 102.000000
E 394 454 97.000000
E 394 562 98.000000
E 396 504 102.000000
E 396 538 94.000000
E 397 612 98.000000
E 398 399 104.000000
E 400 403 96.000000
E 401 578 88.000000
E 402 491 98.000000
E 402 566 98.000000
E 403 558 97.000000
E 403 633 99.000000
E 404 453 94.000000
E 404 455 104.000000
E 404 501 105.000000
E 404 509 101.000000
E 404 516 99.000000
E 404 528 100.000000
E 405 516 91.000000
E 405 538 102.000000
E 406 591 98.000000
E 407 493 96.000000
E 408 425 103.000000
E 408 550 101.000000
E 409 483 99.000000
E 409 493 102.000000
E 409 601 95.000000
E 410 466 101.000000
E 411 552 99.000000
E 411 634 94.000000
E 412 429 100.000000
E 412 485 104.000000
E 412 520 99.000000
E 412 530 91.000000
E 413 437 98.000000
E 414 440 101.000000
E 414 455 101.000000
E 414 636 96.000000
E 415 450 105.000000
E 416 501 97.000000
E 416 559 101.000000
E 418 544 106.000000
E 418 604 102.000000
E 420 537 108.000000
E 421 603 107.000000
E 422 495 105.000000
E 422 634 96.000000
E 423 431 92.000000
E 423 522 100.000000
E 427 453 101.000000
E 427 501 98.000000
E 427 509 99.000000
E 428 546 98.000000
E 429 474 97.000000
E 429 502 102.000000
E 432 474 101.000000
E 433 579 104.000000
E 435 485 101.000000
E 435 511 103.000000
E 438 446 109.000000
E 438 521 101.000000
E 440 443 98.000000
E 440 488 98.000000
E 440 560 88.000000
E 441 457 110.000000
E 442 565 98.000000
E 443 559 98.000000
E 445 553 108.000000
E 447 519 96.000000
E 448 597 101.000000
E 451 454 105.000000
E 451 491 100.000000
E 453 548 102.000000
E 453 559 104.000000
E 453 563 102.000000
E 453 606 95.000000
E 453 609 94.000000
E 454 525 90.000000
E 455 487 93.000000
E 455 545 95.000000
E 456 599 94.000000
E 456 611 98.000000
E 457 477 104.000000
E 457 521 102.000000
E 458 637 101.000000
E 459 528 98.000000
E 459 562 96.000000
E 459 605 96.000000
E 460 545 102.000000
E 460 574 99.000000
E 464 563 102.000000
E 464 592 95.000000
E 465 622 99.000000
E 466 484 95.000000
E 466 632 103.000000
E 469 553 100.000000
E 469 593 102.000000
E 470 537 94.000000
E 473 502 98.000000
E 476 571 97.000000
E 477 554 101.000000
E 478 568 107.000000
E 478 577 95.000000
E 478 594 96.000000
E 478 620 100.000000
E 479 494 103.000000
E 479 507 97.000000
E 480 576 93.000000
E 480 634 100.000000
E 482 517 95.000000
E 483 511 96.000000
E 483 583 105.000000
E 484 573 109.000000
E 485 617 95.000000
E 487 610 99.000000
E 487 640 97.000000
E 488 591 107.000000
E 488 595 105.000000
E 489 536 94.000000
E 493 566 90.000000
E 494 504 101.000000
E 495 599 97.000000
E 495 623 101.000000
E 496 498 101.000000
E 497 542 107.000000
E 497 575 108.000000
E 503 558 95.000000
E 503 600 99.000000
E 503 605 99.000000
E 503 606 88.000000
E 503 621 86.000000
E 504 591 102.000000
E 506 522 110.000000
E 511 541 91.000000
E 511 557 102.000000
E 511 632 109.000000
E 513 618 97.000000
E 514 621 103.000000
E 516 546 97.000000
E 516 559 100.000000
E 516 570 100.000000
E 517 531 92.000000
E 517 548 101.000000
E 518 564 103.000000
E 520 574 100.000000
E 521 578 108.000000
E 523 594 98.000000
E 523 630 96.000000
E 524 538 100.000000
E 526 621 108.000000
E 527 616 86.000000
E 528 573 103.000000
E 529 587 103.000000
E 530 610 107.000000
E 532 613 107.000000
E 532 631 108.000000
E 535 591 96.000000
E 537 572 103.000000
E 538 573 104.000000
E 539 616 100.000000
E 540 627 95.000000
E 542 604 99.000000
E 546 563 96.000000
E 548 593 103.000000
E 549 590 96.000000
E 551 588 103.000000
E 551 613 102.000000
E 556 574 97.000000
E 558 592 99.000000
E 558 638 101.000000
E 563 589 94.000000
E 571 600 99.000000
E 573 596 98.000000
E 580 620 100.000000
E 582 624 98.000000
E 583 626 97.000000
E 585 622 102.000000
E 586 634 99.000000
E 594 595 97.000000
E 597 601 94.000000
E 597 631 95.000000
E 598 599 101.000000
E 598 631 98.000000
E 604 629 91.000000
E 623 625 99.000000
E 626 638 95.000000
E 628 634 95.000000
END

SECTION Terminals
Terminals 160
TP 1 312.000000
TP 2 600.000000
TP 3 220.000000
TP 4 1032.000000
TP 5 32.000000
TP 6 948.000000
TP 7 628.000000
TP 8 240.000000
TP 9 292.000000
TP 10 1164.000000
TP 11 1216.000000
TP 12 336.000000
TP 13 148.000000
TP 14 88.000000
TP 15 372.000000
TP 16 828.000000
TP 17 624.000000
TP 18 212.000000
TP 19 192.000000
TP 20 1248.000000
TP 21 492.000000
TP 22 820.000000
TP 23 576.000000
TP 24 1156.000000
TP 25 308.000000
TP 26 592.000000
TP 27 312.000000
TP 28 764.000000
TP 29 264.000000
TP 30 648.000000
TP 31 1136.000000
TP 32 532.000000
TP 33 428.000000
TP 34 1200.000000
TP 35 1004.000000
TP 36 1196.000000
TP 37 476.000000
TP 38 100.000000
TP 39 428.000000
TP 40 316.000000
TP 41 128.000000
TP 42 380.000000
TP 43 944.000000
TP 44 992.000000
TP 45 924.000000
TP 46 700.000000
TP 47 900.000000
TP 48 1220.000000
TP 49 1204.000000
TP 50 676.000000
TP 51 792.000000
TP 52 484.000000
TP 53 1020.000000
TP 54 548.000000
TP 55 708.000000
TP 56 76.000000
TP 57 520.000000
TP 58 1128.000000
TP 59 848.000000
TP 60 1092.000000
TP 61 1220.000000
TP 62 1040.000000
TP 63 1060.000000
TP 64 112.000000
TP 65 716.000000
TP 66 940.000000
TP 67 712.000000
TP 68 744.000000
TP 69 436.000000
TP 70 1064.000000
TP 71 48.000000
TP 72 340.000000
TP 73 244.000000
TP 74 204.000000
TP 75 540.000000
TP 76 692.000000
TP 77 784.000000
TP 78 1156.000000
TP 79 728.000000
TP 80 92.000000
TP 81 308.000000
TP 82 500.000000
TP 83 488.000000
TP 84 984.000000
TP 85 548.000000
TP 86 1124.000000
TP 87 1024.000000
TP 88 72.000000
TP 89 664.000000
TP 90 980.000000
TP 91 488.000000
TP 92 756.000000
TP 93 144.000000
TP 94 20.000000
TP 95 556.000000
TP 96 988.000000
TP 97 928.000000
TP 98 676.000000
TP 99 616.000000
TP 100 1092.000000
TP 101 1192.000000
TP 102 364.000000
TP 103 680.000000
TP 104 812.000000
TP 105 1192.000000
TP 106 880.000000
TP 107 612.000000
TP 108 280.000000
TP 109 984.000000
TP 110 624.000000
TP 111 588.000000
TP 112 532.000000
TP 113 1212.000000
TP 114 744.000000
TP 115 1232.000000
TP 116 992.000000
TP 117 284.000000
TP 118 996.000000
TP 119 1072.000000
TP 120 336.000000
TP 121 208.000000
TP 122 1056.000000
TP 123 892.000000
TP 124 852.000000
TP 125 632.000000
TP 126 432.000000
TP 127 548.000000
TP 128 8.000000
TP 129 948.000000
TP 130 404.000000
TP 131 1152.000000
TP 132 328.000000
TP 133 132.000000
TP 134 180.000000
TP 135 524.000000
TP 136 768.000000
TP 137 976.000000
TP 138 256.000000
TP 139 948.000000
TP 140 472.000000
TP 141 372.000000
TP 142 1104.000000
TP 143 1196.000000
TP 144 248.000000
TP 145 748.000000
TP 146 1236.000000
TP 147 964.000000
TP 148 252.000000
TP 149 120.000000
TP 150 1144.000000
TP 151 1220.000000
TP 152 628.000000
TP 153 352.000000
TP 154 840.000000
TP 155 336.000000
TP 156 480.000000
TP 157 504.000000
TP 158 1064.000000
TP 159 792.000000
TP 160 464.000000
END

EOF
